p cnf 200 1110
-101 79 0
-101 -40 0
-101 4 0
-101 88 0
-101 -39 0
-101 -91 0
-101 43 0
-101 -71 0
-101 77 0
-101 15 0
101 -79 40 -4 -88 39 91 -43 71 -77 -15 0
-102 -26 0
-102 62 0
-102 -34 0
-102 -13 0
-102 96 0
-102 -74 0
-102 48 0
-102 33 0
-102 45 0
-102 19 0
102 26 -62 34 13 -96 74 -48 -33 -45 -19 0
-103 -64 0
-103 23 0
-103 46 0
-103 -97 0
-103 -60 0
-103 55 0
-103 -93 0
-103 -94 0
-103 83 0
-103 -36 0
103 64 -23 -46 97 60 -55 93 94 -83 36 0
-104 -39 0
-104 -72 0
-104 -99 0
-104 88 0
-104 5 0
-104 -45 0
-104 93 0
-104 -94 0
-104 69 0
-104 9 0
104 39 72 99 -88 -5 45 -93 94 -69 -9 0
-105 -97 0
-105 -22 0
-105 46 0
-105 -82 0
-105 53 0
-105 -73 0
-105 -84 0
-105 68 0
-105 25 0
-105 89 0
105 97 22 -46 82 -53 73 84 -68 -25 -89 0
-106 -83 0
-106 29 0
-106 21 0
-106 64 0
-106 -20 0
-106 -66 0
-106 -82 0
-106 -9 0
-106 56 0
-106 -46 0
106 83 -29 -21 -64 20 66 82 9 -56 46 0
-107 -24 0
-107 -25 0
-107 71 0
-107 34 0
-107 -42 0
-107 16 0
-107 81 0
-107 23 0
-107 37 0
-107 9 0
107 24 25 -71 -34 42 -16 -81 -23 -37 -9 0
-108 -24 0
-108 5 0
-108 59 0
-108 -36 0
-108 -35 0
-108 -31 0
-108 -93 0
-108 43 0
-108 76 0
-108 -60 0
108 24 -5 -59 36 35 31 93 -43 -76 60 0
-109 -73 0
-109 8 0
-109 58 0
-109 -15 0
-109 -33 0
-109 56 0
-109 -79 0
-109 68 0
-109 -53 0
-109 63 0
109 73 -8 -58 15 33 -56 79 -68 53 -63 0
-110 31 0
-110 40 0
-110 -44 0
-110 41 0
-110 -7 0
-110 -16 0
-110 71 0
-110 -46 0
-110 94 0
-110 42 0
110 -31 -40 44 -41 7 16 -71 46 -94 -42 0
101 102 103 104 105 106 107 108 109 110 0
-111 14 0
-111 36 0
-111 19 0
-111 -84 0
-111 95 0
-111 37 0
-111 -68 0
-111 -13 0
-111 34 0
-111 -97 0
111 -14 -36 -19 84 -95 -37 68 13 -34 97 0
-112 50 0
-112 -70 0
-112 93 0
-112 -79 0
-112 34 0
-112 -83 0
-112 90 0
-112 38 0
-112 -21 0
-112 -22 0
112 -50 70 -93 79 -34 83 -90 -38 21 22 0
-113 18 0
-113 -48 0
-113 -91 0
-113 -58 0
-113 -7 0
-113 36 0
-113 1 0
-113 83 0
-113 -33 0
-113 -74 0
113 -18 48 91 58 7 -36 -1 -83 33 74 0
-114 91 0
-114 15 0
-114 88 0
-114 -34 0
-114 -25 0
-114 41 0
-114 60 0
-114 68 0
-114 94 0
-114 46 0
114 -91 -15 -88 34 25 -41 -60 -68 -94 -46 0
-115 -23 0
-115 -33 0
-115 51 0
-115 -50 0
-115 -66 0
-115 -92 0
-115 68 0
-115 27 0
-115 -35 0
-115 70 0
115 23 33 -51 50 66 92 -68 -27 35 -70 0
-116 -60 0
-116 30 0
-116 -64 0
-116 82 0
-116 -63 0
-116 -19 0
-116 34 0
-116 -42 0
-116 -2 0
-116 -45 0
116 60 -30 64 -82 63 19 -34 42 2 45 0
-117 -22 0
-117 -39 0
-117 -91 0
-117 7 0
-117 44 0
-117 -99 0
-117 -76 0
-117 92 0
-117 74 0
-117 6 0
117 22 39 91 -7 -44 99 76 -92 -74 -6 0
-118 -20 0
-118 23 0
-118 -29 0
-118 5 0
-118 85 0
-118 79 0
-118 -16 0
-118 21 0
-118 -66 0
-118 28 0
118 20 -23 29 -5 -85 -79 16 -21 66 -28 0
-119 30 0
-119 -9 0
-119 -34 0
-119 -71 0
-119 -83 0
-119 56 0
-119 -91 0
-119 85 0
-119 -15 0
-119 74 0
119 -30 9 34 71 83 -56 91 -85 15 -74 0
-120 80 0
-120 -33 0
-120 -58 0
-120 -55 0
-120 47 0
-120 45 0
-120 -2 0
-120 12 0
-120 -63 0
-120 -76 0
120 -80 33 58 55 -47 -45 2 -12 63 76 0
111 112 113 114 115 116 117 118 119 120 0
-121 -71 0
-121 -22 0
-121 -69 0
-121 -100 0
-121 -47 0
-121 98 0
-121 -56 0
-121 63 0
-121 -78 0
-121 4 0
121 71 22 69 100 47 -98 56 -63 78 -4 0
-122 7 0
-122 64 0
-122 85 0
-122 -4 0
-122 -69 0
-122 -84 0
-122 65 0
-122 -57 0
-122 -42 0
-122 -43 0
122 -7 -64 -85 4 69 84 -65 57 42 43 0
-123 77 0
-123 -16 0
-123 -4 0
-123 44 0
-123 -46 0
-123 72 0
-123 -79 0
-123 -50 0
-123 1 0
-123 31 0
123 -77 16 4 -44 46 -72 79 50 -1 -31 0
-124 -75 0
-124 -20 0
-124 -16 0
-124 -59 0
-124 -49 0
-124 22 0
-124 -13 0
-124 -66 0
-124 94 0
-124 45 0
124 75 20 16 59 49 -22 13 66 -94 -45 0
-125 -88 0
-125 78 0
-125 -18 0
-125 -71 0
-125 29 0
-125 -73 0
-125 57 0
-125 -24 0
-125 15 0
-125 14 0
125 88 -78 18 71 -29 73 -57 24 -15 -14 0
-126 25 0
-126 29 0
-126 -30 0
-126 -69 0
-126 -78 0
-126 12 0
-126 -53 0
-126 6 0
-126 -8 0
-126 -22 0
126 -25 -29 30 69 78 -12 53 -6 8 22 0
-127 40 0
-127 14 0
-127 -47 0
-127 3 0
-127 39 0
-127 84 0
-127 -62 0
-127 53 0
-127 -68 0
-127 41 0
127 -40 -14 47 -3 -39 -84 62 -53 68 -41 0
-128 -59 0
-128 -13 0
-128 53 0
-128 76 0
-128 89 0
-128 -79 0
-128 7 0
-128 70 0
-128 -58 0
-128 -9 0
128 59 13 -53 -76 -89 79 -7 -70 58 9 0
-129 -95 0
-129 -42 0
-129 -64 0
-129 96 0
-129 97 0
-129 -38 0
-129 -55 0
-129 18 0
-129 -11 0
-129 71 0
129 95 42 64 -96 -97 38 55 -18 11 -71 0
-130 85 0
-130 -38 0
-130 93 0
-130 -80 0
-130 -100 0
-130 47 0
-130 40 0
-130 32 0
-130 -99 0
-130 -29 0
130 -85 38 -93 80 100 -47 -40 -32 99 29 0
121 122 123 124 125 126 127 128 129 130 0
-131 -29 0
-131 -69 0
-131 65 0
-131 -100 0
-131 6 0
-131 71 0
-131 -99 0
-131 22 0
-131 -20 0
-131 52 0
131 29 69 -65 100 -6 -71 99 -22 20 -52 0
-132 52 0
-132 82 0
-132 5 0
-132 -44 0
-132 40 0
-132 35 0
-132 -34 0
-132 89 0
-132 66 0
-132 53 0
132 -52 -82 -5 44 -40 -35 34 -89 -66 -53 0
-133 -22 0
-133 -15 0
-133 55 0
-133 -14 0
-133 52 0
-133 -66 0
-133 -67 0
-133 -78 0
-133 92 0
-133 -7 0
133 22 15 -55 14 -52 66 67 78 -92 7 0
-134 17 0
-134 -16 0
-134 38 0
-134 -6 0
-134 -5 0
-134 91 0
-134 25 0
-134 -2 0
-134 -40 0
-134 -14 0
134 -17 16 -38 6 5 -91 -25 2 40 14 0
-135 73 0
-135 -40 0
-135 -88 0
-135 -68 0
-135 21 0
-135 15 0
-135 43 0
-135 -75 0
-135 61 0
-135 44 0
135 -73 40 88 68 -21 -15 -43 75 -61 -44 0
-136 11 0
-136 68 0
-136 76 0
-136 4 0
-136 -85 0
-136 -5 0
-136 34 0
-136 -21 0
-136 -53 0
-136 73 0
136 -11 -68 -76 -4 85 5 -34 21 53 -73 0
-137 83 0
-137 52 0
-137 -35 0
-137 -23 0
-137 -18 0
-137 89 0
-137 -53 0
-137 91 0
-137 14 0
-137 13 0
137 -83 -52 35 23 18 -89 53 -91 -14 -13 0
-138 6 0
-138 -67 0
-138 48 0
-138 90 0
-138 3 0
-138 75 0
-138 -14 0
-138 86 0
-138 57 0
-138 -53 0
138 -6 67 -48 -90 -3 -75 14 -86 -57 53 0
-139 5 0
-139 47 0
-139 9 0
-139 81 0
-139 64 0
-139 -80 0
-139 99 0
-139 57 0
-139 -70 0
-139 91 0
139 -5 -47 -9 -81 -64 80 -99 -57 70 -91 0
-140 83 0
-140 65 0
-140 -51 0
-140 56 0
-140 22 0
-140 -43 0
-140 64 0
-140 4 0
-140 -21 0
-140 -76 0
140 -83 -65 51 -56 -22 43 -64 -4 21 76 0
131 132 133 134 135 136 137 138 139 140 0
-141 -73 0
-141 -52 0
-141 -27 0
-141 -61 0
-141 86 0
-141 -58 0
-141 79 0
-141 64 0
-141 -99 0
-141 16 0
141 73 52 27 61 -86 58 -79 -64 99 -16 0
-142 -66 0
-142 -90 0
-142 65 0
-142 82 0
-142 84 0
-142 72 0
-142 -41 0
-142 93 0
-142 98 0
-142 -96 0
142 66 90 -65 -82 -84 -72 41 -93 -98 96 0
-143 6 0
-143 -79 0
-143 43 0
-143 41 0
-143 49 0
-143 -34 0
-143 19 0
-143 51 0
-143 62 0
-143 1 0
143 -6 79 -43 -41 -49 34 -19 -51 -62 -1 0
-144 70 0
-144 77 0
-144 -5 0
-144 93 0
-144 89 0
-144 -29 0
-144 31 0
-144 -56 0
-144 1 0
-144 -44 0
144 -70 -77 5 -93 -89 29 -31 56 -1 44 0
-145 -84 0
-145 -1 0
-145 21 0
-145 66 0
-145 -67 0
-145 -89 0
-145 -16 0
-145 -13 0
-145 93 0
-145 19 0
145 84 1 -21 -66 67 89 16 13 -93 -19 0
-146 28 0
-146 31 0
-146 -76 0
-146 -69 0
-146 -64 0
-146 -62 0
-146 -37 0
-146 -80 0
-146 86 0
-146 -23 0
146 -28 -31 76 69 64 62 37 80 -86 23 0
-147 34 0
-147 -60 0
-147 -93 0
-147 31 0
-147 -96 0
-147 -24 0
-147 39 0
-147 -43 0
-147 57 0
-147 98 0
147 -34 60 93 -31 96 24 -39 43 -57 -98 0
-148 -96 0
-148 5 0
-148 87 0
-148 -88 0
-148 57 0
-148 -72 0
-148 -83 0
-148 -71 0
-148 -61 0
-148 76 0
148 96 -5 -87 88 -57 72 83 71 61 -76 0
-149 -23 0
-149 -56 0
-149 71 0
-149 -91 0
-149 20 0
-149 38 0
-149 -68 0
-149 -36 0
-149 -27 0
-149 81 0
149 23 56 -71 91 -20 -38 68 36 27 -81 0
-150 77 0
-150 27 0
-150 -99 0
-150 -13 0
-150 39 0
-150 -35 0
-150 37 0
-150 -83 0
-150 22 0
-150 -86 0
150 -77 -27 99 13 -39 35 -37 83 -22 86 0
141 142 143 144 145 146 147 148 149 150 0
-151 52 0
-151 70 0
-151 89 0
-151 92 0
-151 -88 0
-151 33 0
-151 49 0
-151 46 0
-151 -48 0
-151 90 0
151 -52 -70 -89 -92 88 -33 -49 -46 48 -90 0
-152 95 0
-152 83 0
-152 -36 0
-152 76 0
-152 59 0
-152 94 0
-152 86 0
-152 -26 0
-152 67 0
-152 -77 0
152 -95 -83 36 -76 -59 -94 -86 26 -67 77 0
-153 -12 0
-153 53 0
-153 55 0
-153 -33 0
-153 100 0
-153 -57 0
-153 -27 0
-153 64 0
-153 -38 0
-153 -13 0
153 12 -53 -55 33 -100 57 27 -64 38 13 0
-154 -24 0
-154 -73 0
-154 -26 0
-154 -27 0
-154 -95 0
-154 -76 0
-154 -15 0
-154 18 0
-154 -12 0
-154 51 0
154 24 73 26 27 95 76 15 -18 12 -51 0
-155 36 0
-155 -78 0
-155 19 0
-155 13 0
-155 -14 0
-155 75 0
-155 -42 0
-155 58 0
-155 -43 0
-155 -69 0
155 -36 78 -19 -13 14 -75 42 -58 43 69 0
-156 40 0
-156 -55 0
-156 84 0
-156 68 0
-156 52 0
-156 -90 0
-156 87 0
-156 -46 0
-156 -79 0
-156 -73 0
156 -40 55 -84 -68 -52 90 -87 46 79 73 0
-157 89 0
-157 -16 0
-157 81 0
-157 30 0
-157 -77 0
-157 -40 0
-157 -84 0
-157 -17 0
-157 -59 0
-157 45 0
157 -89 16 -81 -30 77 40 84 17 59 -45 0
-158 -10 0
-158 -5 0
-158 86 0
-158 -96 0
-158 67 0
-158 -52 0
-158 -30 0
-158 -77 0
-158 29 0
-158 59 0
158 10 5 -86 96 -67 52 30 77 -29 -59 0
-159 65 0
-159 35 0
-159 46 0
-159 -31 0
-159 97 0
-159 -3 0
-159 -52 0
-159 53 0
-159 8 0
-159 -26 0
159 -65 -35 -46 31 -97 3 52 -53 -8 26 0
-160 72 0
-160 90 0
-160 30 0
-160 21 0
-160 6 0
-160 -24 0
-160 -35 0
-160 -40 0
-160 -86 0
-160 55 0
160 -72 -90 -30 -21 -6 24 35 40 86 -55 0
151 152 153 154 155 156 157 158 159 160 0
-161 49 0
-161 -44 0
-161 -64 0
-161 -19 0
-161 -11 0
-161 -60 0
-161 12 0
-161 -35 0
-161 38 0
-161 -76 0
161 -49 44 64 19 11 60 -12 35 -38 76 0
-162 12 0
-162 -47 0
-162 -59 0
-162 19 0
-162 6 0
-162 71 0
-162 67 0
-162 -99 0
-162 93 0
-162 -90 0
162 -12 47 59 -19 -6 -71 -67 99 -93 90 0
-163 -60 0
-163 -72 0
-163 61 0
-163 -38 0
-163 63 0
-163 -55 0
-163 89 0
-163 -19 0
-163 67 0
-163 16 0
163 60 72 -61 38 -63 55 -89 19 -67 -16 0
-164 16 0
-164 -100 0
-164 -53 0
-164 -2 0
-164 -23 0
-164 -84 0
-164 74 0
-164 -78 0
-164 -25 0
-164 14 0
164 -16 100 53 2 23 84 -74 78 25 -14 0
-165 71 0
-165 -83 0
-165 85 0
-165 34 0
-165 8 0
-165 -23 0
-165 18 0
-165 -45 0
-165 -88 0
-165 24 0
165 -71 83 -85 -34 -8 23 -18 45 88 -24 0
-166 -6 0
-166 -7 0
-166 -37 0
-166 -68 0
-166 71 0
-166 24 0
-166 -66 0
-166 -13 0
-166 -76 0
-166 74 0
166 6 7 37 68 -71 -24 66 13 76 -74 0
-167 -24 0
-167 57 0
-167 -4 0
-167 72 0
-167 -27 0
-167 -95 0
-167 53 0
-167 -87 0
-167 -15 0
-167 -11 0
167 24 -57 4 -72 27 95 -53 87 15 11 0
-168 -51 0
-168 87 0
-168 -75 0
-168 61 0
-168 -62 0
-168 5 0
-168 7 0
-168 -2 0
-168 -71 0
-168 8 0
168 51 -87 75 -61 62 -5 -7 2 71 -8 0
-169 35 0
-169 9 0
-169 14 0
-169 -74 0
-169 65 0
-169 -71 0
-169 -57 0
-169 79 0
-169 -19 0
-169 91 0
169 -35 -9 -14 74 -65 71 57 -79 19 -91 0
-170 -87 0
-170 -62 0
-170 -2 0
-170 82 0
-170 -89 0
-170 58 0
-170 59 0
-170 43 0
-170 52 0
-170 -34 0
170 87 62 2 -82 89 -58 -59 -43 -52 34 0
161 162 163 164 165 166 167 168 169 170 0
-171 87 0
-171 6 0
-171 -34 0
-171 94 0
-171 75 0
-171 56 0
-171 -82 0
-171 52 0
-171 27 0
-171 -50 0
171 -87 -6 34 -94 -75 -56 82 -52 -27 50 0
-172 2 0
-172 -81 0
-172 -83 0
-172 -59 0
-172 -49 0
-172 -19 0
-172 -43 0
-172 -48 0
-172 -73 0
-172 94 0
172 -2 81 83 59 49 19 43 48 73 -94 0
-173 -9 0
-173 -75 0
-173 -66 0
-173 16 0
-173 51 0
-173 71 0
-173 -20 0
-173 -57 0
-173 -25 0
-173 97 0
173 9 75 66 -16 -51 -71 20 57 25 -97 0
-174 84 0
-174 -71 0
-174 82 0
-174 -64 0
-174 43 0
-174 -27 0
-174 48 0
-174 93 0
-174 -21 0
-174 -30 0
174 -84 71 -82 64 -43 27 -48 -93 21 30 0
-175 -22 0
-175 36 0
-175 71 0
-175 -1 0
-175 -77 0
-175 -44 0
-175 37 0
-175 -25 0
-175 -60 0
-175 -6 0
175 22 -36 -71 1 77 44 -37 25 60 6 0
-176 45 0
-176 -63 0
-176 14 0
-176 6 0
-176 65 0
-176 -64 0
-176 83 0
-176 -24 0
-176 -100 0
-176 81 0
176 -45 63 -14 -6 -65 64 -83 24 100 -81 0
-177 -22 0
-177 -32 0
-177 -45 0
-177 -64 0
-177 -60 0
-177 -9 0
-177 -89 0
-177 65 0
-177 99 0
-177 42 0
177 22 32 45 64 60 9 89 -65 -99 -42 0
-178 -45 0
-178 -42 0
-178 -76 0
-178 -8 0
-178 29 0
-178 50 0
-178 -93 0
-178 20 0
-178 -62 0
-178 -49 0
178 45 42 76 8 -29 -50 93 -20 62 49 0
-179 -54 0
-179 -79 0
-179 85 0
-179 81 0
-179 -40 0
-179 72 0
-179 -5 0
-179 10 0
-179 -53 0
-179 95 0
179 54 79 -85 -81 40 -72 5 -10 53 -95 0
-180 -36 0
-180 -75 0
-180 33 0
-180 66 0
-180 69 0
-180 54 0
-180 28 0
-180 -98 0
-180 -11 0
-180 76 0
180 36 75 -33 -66 -69 -54 -28 98 11 -76 0
171 172 173 174 175 176 177 178 179 180 0
-181 34 0
-181 23 0
-181 29 0
-181 42 0
-181 87 0
-181 88 0
-181 -22 0
-181 -69 0
-181 -21 0
-181 57 0
181 -34 -23 -29 -42 -87 -88 22 69 21 -57 0
-182 -92 0
-182 62 0
-182 -64 0
-182 89 0
-182 -100 0
-182 18 0
-182 63 0
-182 -32 0
-182 -98 0
-182 14 0
182 92 -62 64 -89 100 -18 -63 32 98 -14 0
-183 -71 0
-183 73 0
-183 63 0
-183 -100 0
-183 13 0
-183 61 0
-183 20 0
-183 -3 0
-183 87 0
-183 -25 0
183 71 -73 -63 100 -13 -61 -20 3 -87 25 0
-184 -57 0
-184 -70 0
-184 88 0
-184 -71 0
-184 -27 0
-184 -94 0
-184 -63 0
-184 -25 0
-184 -38 0
-184 -86 0
184 57 70 -88 71 27 94 63 25 38 86 0
-185 11 0
-185 -98 0
-185 -2 0
-185 -14 0
-185 -97 0
-185 30 0
-185 78 0
-185 53 0
-185 96 0
-185 -82 0
185 -11 98 2 14 97 -30 -78 -53 -96 82 0
-186 -72 0
-186 49 0
-186 -27 0
-186 29 0
-186 -81 0
-186 -54 0
-186 70 0
-186 -39 0
-186 75 0
-186 34 0
186 72 -49 27 -29 81 54 -70 39 -75 -34 0
-187 -85 0
-187 -45 0
-187 21 0
-187 -9 0
-187 -43 0
-187 -15 0
-187 37 0
-187 51 0
-187 92 0
-187 -84 0
187 85 45 -21 9 43 15 -37 -51 -92 84 0
-188 -26 0
-188 -81 0
-188 23 0
-188 -98 0
-188 65 0
-188 63 0
-188 36 0
-188 -6 0
-188 -88 0
-188 -49 0
188 26 81 -23 98 -65 -63 -36 6 88 49 0
-189 18 0
-189 83 0
-189 -90 0
-189 44 0
-189 74 0
-189 36 0
-189 -20 0
-189 81 0
-189 53 0
-189 -49 0
189 -18 -83 90 -44 -74 -36 20 -81 -53 49 0
-190 90 0
-190 21 0
-190 61 0
-190 57 0
-190 70 0
-190 -86 0
-190 49 0
-190 62 0
-190 -11 0
-190 68 0
190 -90 -21 -61 -57 -70 86 -49 -62 11 -68 0
181 182 183 184 185 186 187 188 189 190 0
-191 67 0
-191 -81 0
-191 14 0
-191 61 0
-191 -34 0
-191 58 0
-191 59 0
-191 -70 0
-191 -30 0
-191 36 0
191 -67 81 -14 -61 34 -58 -59 70 30 -36 0
-192 77 0
-192 -95 0
-192 4 0
-192 19 0
-192 -75 0
-192 -72 0
-192 -17 0
-192 -84 0
-192 -23 0
-192 52 0
192 -77 95 -4 -19 75 72 17 84 23 -52 0
-193 67 0
-193 75 0
-193 -81 0
-193 -25 0
-193 55 0
-193 -66 0
-193 -70 0
-193 -7 0
-193 -16 0
-193 -80 0
193 -67 -75 81 25 -55 66 70 7 16 80 0
-194 -53 0
-194 -49 0
-194 7 0
-194 -15 0
-194 -17 0
-194 14 0
-194 89 0
-194 56 0
-194 93 0
-194 45 0
194 53 49 -7 15 17 -14 -89 -56 -93 -45 0
-195 83 0
-195 59 0
-195 -74 0
-195 89 0
-195 57 0
-195 -79 0
-195 -96 0
-195 73 0
-195 -94 0
-195 -82 0
195 -83 -59 74 -89 -57 79 96 -73 94 82 0
-196 -84 0
-196 -61 0
-196 -56 0
-196 98 0
-196 51 0
-196 11 0
-196 58 0
-196 81 0
-196 49 0
-196 66 0
196 84 61 56 -98 -51 -11 -58 -81 -49 -66 0
-197 1 0
-197 -98 0
-197 -78 0
-197 41 0
-197 -89 0
-197 -64 0
-197 32 0
-197 4 0
-197 -38 0
-197 45 0
197 -1 98 78 -41 89 64 -32 -4 38 -45 0
-198 -2 0
-198 86 0
-198 -83 0
-198 -85 0
-198 51 0
-198 -73 0
-198 -72 0
-198 -63 0
-198 12 0
-198 40 0
198 2 -86 83 85 -51 73 72 63 -12 -40 0
-199 17 0
-199 -90 0
-199 25 0
-199 56 0
-199 52 0
-199 -77 0
-199 72 0
-199 78 0
-199 -75 0
-199 70 0
199 -17 90 -25 -56 -52 77 -72 -78 75 -70 0
-200 20 0
-200 62 0
-200 -11 0
-200 -86 0
-200 -79 0
-200 -91 0
-200 -5 0
-200 -76 0
-200 -7 0
-200 60 0
200 -20 -62 11 86 79 91 5 76 7 -60 0
191 192 193 194 195 196 197 198 199 200 0
